11111333311111111111111111222222222222111111111222113333111222111122222222222222212222221111333331112222222212222221333311111111111111111111111111111111111111111111112222222113333311111112222222221133333111111111111122221333122222222222221122222222222222222211111111112222222222222211111111111